(set-logic QF_S)
(declare-fun var0 () String)
(declare-fun var1 () String)
(declare-fun var2 () String)
(declare-fun var3 () String)
(declare-fun var4 () Int)
(declare-fun var5 () Int)
(declare-fun var6 () Int)
(declare-fun var7 () Int)
(assert (str.suffixof var0 var1))
(assert (< (str.to.int var2) (str.to.int var3)))
(assert (< var4 var5))
(assert (str.in.re (str.substr var0 var6 var7) (re.+ (re.+ re.allchar))))
(check-sat)